100
128
15
40
47
43
35
6
44
24
34
32
16
14
25
28
15
45
11
21
12
3
25
46
62
27
10
20
32
19
8
24
57
47
33
36
3
15
55
37
1
40
16
21
17
21
25
44
19
1
15
19
18
28
63
29
48
20
36
26
37
27
48
20
20
20
20
37
34
25
4
63
64
26
55
52
20
46
46
35
27
49
59
4
55
52
16
38
42
55
5
25
48
43
64
4
59
10
38
42
47
6